output ([(((("\n"++problem_name)++"\n")++"L:")++show(L))++"\n"]++[if problem[i,j]==0 then "*" else show(letters[fix(L[problem[i,j]])]) endif++if j==cols then "\n" else "" endif | i in 1..rows, j in 1..cols, ])++["\n"];
int: rows = 6;
int: cols = 6;
array [1..rows,1..cols] of int: problem = [|1,2,3,4,5,0|6,0,7,8,9,10|11,12,13,0,14,15|16,17,0,18,19,20|21,22,23,24,0,25|0,26,27,28,29,30|];
int: num_letters = 26;
array [1..num_letters] of string: letters = ["a","b","c","d","e","f","g","h","i","j","k","l","m","n","o","p","q","r","s","t","u","v","w","x","y","z"];
int: N = 30;
array [0..N] of int: L;
string: problem_name = "puzzle07, 6 x 6";
